free format
#<Regression>
#  <Author>Auto-Generated</Author>
#  <Format>TRACE</Format>
#  <Restart />
#  <ParallelCases />
#  <SupportFiles />
#  <Suites>
#    R5Functionality
#    Short
#  </Suites>
#  <FailureMode />
#  <Purpose />
#  <PermutationOf />
#  <SuccessCriteria />
#</Regression>
*
*
*
*************
* main data *
*************
*
*       numtcr          ieos         inopt          nmat          id2o
             2             0             1             0             0
Pipe flow driven by variable pressure break and plugged at the opposite
end by a break with adjPress set to 1.
*
*
*****************
* namelist data *
*****************
*
 &inopts
  cpuflg=1,
  iadded=1,
  noair=0,
  nsend=4,
  use_IAPWS_st=.TRUE.,
  usesjc=3
 &end
*
***************
* Model Flags *
***************
*
*        dstep         timet
             0           0.0
*       stdyst        transi         ncomp          njun          ipak
             0             1             3             2             1
*         epso          epss
        1.0E-5        1.0E-4
*       oitmax        sitmax        isolut        ncontr         nccfl
            10            10             0             0             0
*         ntsv          ntcb          ntcf          ntrp          ntcp
             1             0             0             0             0
*
*************************
* component-number data *
*************************
*
*  Component input order (IORDER)
*-- type ---- num ------------- name ----------------  +    jun1   jun2   jun3
* BREAK    *    100 s * side leg one bc                +     201
* BREAK    *    201 s * side leg one bc                +     202
* PIPE     *    701 e * one cell pipe                  +     201    202
*
*
**************************************************
* Starting Signal Variable Section of Model      *
**************************************************
*
*         idsv          isvn          ilcn          icn1          icn2
             1             0             0             0             0
**************************************************
* Finished Signal Variable Section of Model      *
**************************************************
*
*
*
*
*******   type           num        userid                component name
pipe                     701             1                  one cell pipe
*       ncells         nodes          jun1          jun2          epsw
             2             0           201           202           0.0
*       nsides
             0
*         ichf         iconc      pipetype          ipow        npipes
             0             0             0             0             1
*        radin            th         houtl         houtv         toutl
           0.0           0.0           0.0           0.0           0.0
*        toutv          pwin         pwoff         rpwmx         pwscl
           0.0           0.0           0.0           0.0           0.0
* dx    *          1.0         1.0e
* vol   *          0.1         0.1e
* fa    *          0.1         0.1         0.1e
* fric  *          1.0         1.0         1.0e
* grav  *          0.0         0.0         0.0e
* hd    *          1.0         1.0         1.0e
* nff   *            1           1           1e
* alp   *          0.0         0.0e
* vl    *          0.0         0.0         0.0e
* vv    *          0.0         0.0         0.0e
* tl    *        300.0       300.0e
* tv    *        300.0       300.0e
* p     *        2.0E5       2.0E5e
* pa    *          0.0         0.0e
*
*
*******   type           num        userid                component name
break                    201             1                side leg one bc
*         jun1          ibty          isat          ioff      adjpress
           202             1             0             0             0
*         ibtr          ibsv          nbtb          nbsv          nbrf
             0             1             3             0             0
*         dxin         volin         alpin           tin           pin
            1.0           0.1           0.0         300.0         2.0E5
*         pain        concin          rbmx          poff          belv
            0.0           0.0        1.0E20           0.0           0.0
*         pscl         tlscl         tvscl         pascl        conscl
           1.0           0.0           0.0           0.0           0.0
* ptb  *          0.0       2.0E5s
* ptb  *         0.05       4.0E5s
* ptb  *          0.1       2.0E5e
*
*
*******   type           num        userid                component name
break                    100             1                side leg one bc
*         jun1          ibty          isat          ioff      adjpress
           201             0             0             0             1
*         dxin         volin         alpin           tin           pin
            1.0           0.1           0.0         300.0         2.0E5
*         pain        concin          rbmx          poff          belv
            0.0           0.0           0.0           0.0           0.0
*
end
*****************
* Timestep Data *
*****************
*        dtmin         dtmax          tend         rtwfp
        1.0E-3           0.1           1.0           1.0
*        edint         gfint        dmpint        sedint
         100.0          0.05         200.0           5.0
*
*      endflag
            0.0
